10877.0 1166919.0 
10957.0 1155013.0 
10868.0 1173374.0 
11004.0 1153316.0 
10931.0 1158248.0 
11139.0 1142817.0 
10920.0 1160866.0 
11150.0 1141199.0 
10958.0 1153860.0 
10916.0 1162615.0 
10924.0 1158938.0 
11216.0 1140683.0 
11222.0 1139374.0 
11233.0 1138639.0 
11011.0 1149069.0 
11140.0 1142096.0 
10859.0 1173659.0 
11022.0 1147287.0 
11117.0 1144997.0 
11006.0 1150460.0 
11026.0 1146987.0 
10949.0 1155935.0 
10889.0 1165779.0 
11105.0 1145203.0 
